50, 1061
48, 53
96, 106
96, 106
8, 13
16, 26
32, 52
16, 26
27, 32
27, 32
25, 30
25, 30
32, 37
64, 74
44, 49
42, 47
84, 94
168, 188
126, 141
20, 25
40, 50
40, 50
11, 16
22, 32
11, 16
21, 26
42, 52
84, 104
42, 52
34, 39
68, 78
136, 156
34, 39
9, 14
18, 28
9, 14
36, 41
72, 82
72, 82
4, 9
8, 18
16, 36
19, 24
38, 48
57, 72
10, 15
20, 30
40, 60
19, 24
38, 48
57, 72
